
n_res = 4;
rcap = [30, 41, 484, 494];
rtype = [1, 1, 2, 2];
n_tasks = 100;
modes =  [{1, 2, 3}, {4, 5, 6}, {7, 8, 9}, {10, 11, 12}, {13, 14, 15}, {16, 17, 18}, {19, 20, 21}, {22, 23, 24}, {25, 26, 27}, {28, 29, 30}, {31, 32, 33}, {34, 35, 36}, {37, 38, 39}, {40, 41, 42}, {43, 44, 45}, {46, 47, 48}, {49, 50, 51}, {52, 53, 54}, {55, 56, 57}, {58, 59, 60}, {61, 62, 63}, {64, 65, 66}, {67, 68, 69}, {70, 71, 72}, {73, 74, 75}, {76, 77, 78}, {79, 80, 81}, {82, 83, 84}, {85, 86, 87}, {88, 89, 90}, {91, 92, 93}, {94, 95, 96}, {97, 98, 99}, {100, 101, 102}, {103, 104, 105}, {106, 107, 108}, {109, 110, 111}, {112, 113, 114}, {115, 116, 117}, {118, 119, 120}, {121, 122, 123}, {124, 125, 126}, {127, 128, 129}, {130, 131, 132}, {133, 134, 135}, {136, 137, 138}, {139, 140, 141}, {142, 143, 144}, {145, 146, 147}, {148, 149, 150}, {151, 152, 153}, {154, 155, 156}, {157, 158, 159}, {160, 161, 162}, {163, 164, 165}, {166, 167, 168}, {169, 170, 171}, {172, 173, 174}, {175, 176, 177}, {178, 179, 180}, {181, 182, 183}, {184, 185, 186}, {187, 188, 189}, {190, 191, 192}, {193, 194, 195}, {196, 197, 198}, {199, 200, 201}, {202, 203, 204}, {205, 206, 207}, {208, 209, 210}, {211, 212, 213}, {214, 215, 216}, {217, 218, 219}, {220, 221, 222}, {223, 224, 225}, {226, 227, 228}, {229, 230, 231}, {232, 233, 234}, {235, 236, 237}, {238, 239, 240}, {241, 242, 243}, {244, 245, 246}, {247, 248, 249}, {250, 251, 252}, {253, 254, 255}, {256, 257, 258}, {259, 260, 261}, {262, 263, 264}, {265, 266, 267}, {268, 269, 270}, {271, 272, 273}, {274, 275, 276}, {277, 278, 279}, {280, 281, 282}, {283, 284, 285}, {286, 287, 288}, {289, 290, 291}, {292, 293, 294}, {295, 296, 297}, {298, 299, 300}];
succ =  [{31, 25, 23, 21, 20, 6}, {29, 25, 23, 21, 19, 10}, {33, 31, 28, 25, 24, 23, 20, 18, 17}, {31, 29, 28, 10}, {33, 31, 29, 26, 24, 23, 22, 18}, {29, 28, 10}, {38, 37, 33, 31, 29, 24, 23, 22, 20}, {44, 31, 28, 21, 18, 17}, {44, 38, 37, 33, 32, 31, 28, 26, 24}, {44, 33, 24, 18, 17}, {44, 31, 28, 24, 17}, {47, 46, 38, 37, 35, 31, 29, 21}, {46, 38, 37, 35, 31, 29, 28, 26}, {46, 44, 37, 33, 32, 28, 27, 26}, {33, 32, 31, 26, 24}, {32, 31, 28, 27, 26}, {47, 35, 32, 27, 26}, {50, 46, 39, 38, 37, 35, 34, 32, 30}, {50, 46, 44, 43, 31, 28}, {50, 46, 45, 44, 43, 40, 39, 32, 30}, {43, 33, 26}, {50, 45, 44, 42, 40, 39, 36, 32}, {50, 45, 43, 42, 39, 36, 34}, {46, 40, 35, 27}, {46, 45, 42, 40, 36, 32}, {50, 45, 40, 30}, {52, 50, 45, 43, 39}, {45, 41, 34}, {42, 39, 32}, {57, 52, 42, 36}, {48, 42, 40, 39}, {59, 57, 55, 54, 52, 49, 48}, {57, 48, 39}, {59, 55, 52, 48, 47}, {59, 58, 52, 51, 42}, {48, 41}, {59, 58, 57, 54, 52, 51}, {48, 42}, {58, 41}, {64, 62, 58, 57, 54, 51}, {64, 59, 56, 55, 49}, {64, 63, 56, 54, 49}, {64, 59, 57, 55, 51}, {64, 63, 59, 53, 51}, {64, 63, 58, 54, 51}, {64, 59, 57, 51}, {68, 60, 58, 57, 53}, {62, 58, 51}, {72, 68, 60, 53}, {79, 77, 73, 72, 71, 68, 67, 66, 64, 62, 60}, {72, 71, 61, 60, 56}, {72, 64, 53}, {79, 77, 74, 73, 71, 65, 62, 61}, {79, 77, 73, 72, 67, 66, 60}, {79, 68, 66, 63, 60}, {79, 77, 74, 73, 70, 68, 67}, {79, 74, 73, 67, 63}, {84, 82, 79, 73, 72, 71, 69}, {79, 74, 71, 66}, {74, 70, 69, 65}, {70, 67, 66}, {84, 81, 80, 78, 70}, {80, 75, 71, 70}, {78, 75, 69}, {100, 83, 82, 81, 80, 78, 76}, {82, 69}, {100, 92, 83, 80, 78, 75}, {100, 92, 82, 80, 78, 76}, {100, 87, 83, 81, 80, 76}, {100, 92, 89, 87, 86, 83, 76}, {92, 86, 78, 76}, {100, 90, 87, 86, 83, 80}, {100, 91, 81, 78}, {92, 91, 84, 82}, {99, 98, 91, 90, 89, 87, 86, 85}, {99, 98, 91, 90, 88, 85}, {98, 97, 96, 89, 87, 86}, {98, 97, 89, 87, 85}, {97, 91, 87, 86, 85}, {99, 97, 96, 91, 89, 88}, {99, 98, 97, 96, 88, 86}, {99, 98, 96, 87, 86}, {98, 97, 96, 95, 88}, {100, 97, 96, 95, 88}, {96, 95, 94, 93}, {95, 94, 93}, {88}, {94, 93}, {95, 93}, {97, 93}, {94}, {96}, {}, {}, {}, {}, {}, {}, {}, {}];
n_opt = 300;
dur = [1, 7, 9, 1, 8, 9, 1, 2, 5, 1, 6, 7, 1, 4, 5, 5, 9, 10, 3, 5, 10, 5, 6, 7, 2, 7, 9, 7, 9, 10, 4, 5, 7, 1, 7, 10, 4, 7, 8, 1, 5, 9, 3, 4, 6, 4, 5, 8, 4, 8, 10, 5, 8, 10, 8, 9, 10, 1, 9, 10, 3, 6, 10, 2, 5, 8, 2, 8, 10, 5, 7, 9, 2, 6, 9, 4, 5, 10, 3, 5, 6, 3, 8, 9, 1, 2, 10, 3, 7, 8, 2, 6, 8, 1, 5, 6, 2, 3, 4, 2, 5, 7, 6, 7, 8, 3, 9, 10, 2, 4, 10, 2, 7, 9, 1, 6, 8, 3, 5, 10, 6, 7, 10, 4, 6, 9, 2, 9, 10, 1, 2, 9, 2, 4, 5, 3, 5, 6, 2, 3, 7, 2, 5, 9, 2, 6, 7, 7, 8, 9, 4, 5, 10, 1, 3, 4, 3, 5, 7, 3, 4, 5, 3, 5, 10, 4, 5, 9, 5, 7, 9, 3, 5, 8, 2, 6, 7, 1, 3, 5, 1, 6, 7, 2, 6, 7, 2, 3, 4, 5, 8, 10, 7, 9, 10, 2, 8, 9, 1, 5, 6, 5, 8, 9, 1, 2, 8, 3, 7, 9, 3, 6, 8, 4, 6, 9, 5, 6, 7, 3, 4, 6, 5, 7, 8, 2, 4, 10, 1, 5, 10, 1, 2, 3, 1, 2, 9, 7, 8, 9, 7, 8, 9, 3, 9, 10, 3, 4, 8, 1, 2, 5, 3, 4, 9, 1, 3, 9, 2, 4, 5, 4, 9, 10, 3, 6, 7, 5, 6, 10, 2, 9, 10, 4, 5, 9, 2, 5, 6, 4, 6, 8, 5, 7, 8, 6, 7, 8, 3, 6, 10, 4, 5, 6, 6, 7, 9, 2, 3, 4];
rreq = [|1, 1, 1, 3, 3, 3, 3, 3, 3, 4, 4, 4, 5, 3, 1, 4, 3, 2, 4, 3, 3, 1, 1, 1, 2, 1, 1, 5, 3, 3, 2, 1, 1, 3, 2, 1, 4, 3, 3, 1, 1, 1, 2, 1, 1, 4, 3, 3, 2, 1, 1, 5, 3, 3, 4, 2, 1, 3, 3, 3, 4, 3, 3, 5, 4, 3, 4, 2, 1, 5, 3, 2, 2, 2, 2, 2, 2, 2, 4, 3, 3, 2, 1, 1, 3, 3, 3, 3, 3, 1, 2, 1, 1, 5, 4, 4, 3, 3, 3, 3, 2, 1, 1, 1, 1, 4, 4, 3, 4, 2, 2, 3, 3, 1, 1, 1, 1, 4, 3, 2, 3, 3, 3, 3, 2, 2, 5, 4, 4, 2, 2, 2, 3, 3, 3, 4, 4, 4, 3, 3, 3, 4, 3, 3, 3, 3, 3, 4, 3, 3, 3, 3, 3, 4, 4, 4, 3, 3, 2, 2, 2, 1, 2, 2, 2, 3, 3, 3, 3, 2, 1, 4, 3, 3, 3, 2, 1, 3, 2, 1, 2, 2, 1, 4, 3, 1, 3, 2, 2, 2, 2, 2, 5, 2, 1, 5, 3, 3, 1, 1, 1, 5, 3, 3, 5, 3, 3, 1, 1, 1, 4, 3, 2, 3, 3, 2, 4, 3, 2, 3, 3, 2, 4, 4, 3, 4, 4, 4, 2, 1, 1, 5, 5, 5, 5, 5, 5, 5, 4, 3, 3, 3, 3, 3, 2, 1, 3, 2, 1, 3, 2, 2, 3, 1, 1, 5, 4, 2, 3, 1, 1, 1, 1, 1, 4, 4, 3, 4, 4, 3, 4, 2, 2, 3, 3, 3, 1, 1, 1, 4, 2, 1, 5, 4, 4, 5, 3, 3, 4, 3, 2, 3, 2, 2, 3, 3, 1, 4, 3, 2
 |5, 5, 5, 4, 2, 1, 2, 1, 1, 5, 5, 5, 4, 3, 3, 4, 3, 3, 4, 4, 4, 2, 2, 1, 5, 4, 3, 1, 1, 1, 2, 2, 2, 4, 4, 4, 4, 3, 3, 5, 3, 2, 4, 4, 4, 4, 4, 4, 4, 4, 2, 4, 3, 3, 3, 2, 2, 3, 1, 1, 3, 3, 3, 1, 1, 1, 2, 2, 2, 5, 4, 4, 4, 3, 3, 3, 2, 1, 3, 3, 3, 3, 3, 2, 5, 4, 3, 2, 1, 1, 1, 1, 1, 5, 5, 5, 3, 2, 1, 3, 3, 3, 5, 3, 2, 5, 4, 2, 3, 3, 3, 2, 2, 2, 4, 3, 1, 3, 3, 1, 3, 3, 3, 4, 2, 1, 3, 3, 3, 5, 5, 5, 4, 4, 4, 3, 2, 2, 5, 5, 5, 4, 3, 3, 4, 3, 3, 3, 3, 3, 1, 1, 1, 5, 4, 2, 1, 1, 1, 2, 2, 2, 3, 2, 2, 5, 3, 3, 4, 3, 3, 2, 1, 1, 3, 3, 2, 3, 3, 2, 1, 1, 1, 2, 2, 1, 2, 1, 1, 5, 4, 3, 3, 3, 2, 3, 2, 2, 2, 2, 2, 5, 5, 5, 1, 1, 1, 4, 3, 3, 4, 3, 3, 4, 3, 3, 5, 5, 5, 2, 2, 2, 5, 3, 3, 3, 2, 1, 4, 3, 1, 2, 1, 1, 5, 5, 5, 2, 1, 1, 1, 1, 1, 4, 4, 4, 1, 1, 1, 4, 3, 3, 4, 3, 3, 4, 4, 4, 4, 3, 1, 2, 2, 2, 2, 1, 1, 3, 3, 2, 3, 3, 2, 5, 4, 3, 4, 4, 3, 3, 3, 2, 4, 2, 1, 3, 2, 2, 3, 2, 2, 4, 3, 3, 2, 2, 2, 4, 3, 2
 |5, 4, 4, 7, 7, 6, 2, 2, 1, 5, 5, 4, 8, 7, 6, 1, 1, 1, 10, 8, 8, 2, 2, 2, 7, 7, 7, 9, 4, 2, 8, 8, 8, 7, 4, 3, 6, 5, 4, 10, 6, 4, 7, 7, 1, 9, 7, 6, 9, 6, 4, 6, 4, 3, 7, 5, 5, 8, 5, 3, 9, 5, 4, 9, 8, 7, 3, 3, 3, 7, 7, 6, 5, 4, 2, 7, 4, 3, 5, 3, 2, 3, 3, 1, 7, 4, 3, 9, 5, 5, 8, 4, 1, 6, 6, 6, 9, 5, 2, 7, 4, 4, 7, 5, 4, 6, 5, 3, 3, 2, 2, 9, 7, 7, 7, 6, 6, 7, 4, 1, 5, 3, 3, 4, 4, 2, 2, 1, 1, 6, 5, 5, 8, 6, 6, 6, 4, 4, 7, 6, 2, 6, 6, 5, 7, 3, 2, 7, 5, 3, 6, 4, 2, 5, 3, 3, 8, 6, 4, 8, 6, 6, 4, 2, 1, 6, 6, 6, 3, 3, 3, 4, 4, 4, 4, 3, 2, 8, 6, 6, 10, 9, 9, 8, 7, 7, 10, 5, 3, 7, 6, 5, 1, 1, 1, 8, 7, 7, 6, 5, 5, 8, 8, 8, 2, 2, 2, 8, 4, 2, 5, 5, 2, 9, 7, 7, 8, 8, 8, 5, 5, 4, 8, 7, 6, 10, 10, 10, 9, 8, 7, 8, 5, 5, 2, 1, 1, 7, 7, 6, 8, 6, 5, 7, 6, 4, 4, 4, 4, 4, 4, 3, 8, 6, 5, 5, 4, 1, 8, 7, 5, 8, 6, 5, 5, 4, 3, 8, 7, 6, 8, 7, 7, 6, 4, 4, 10, 9, 8, 8, 7, 7, 8, 7, 6, 5, 4, 2, 10, 8, 5, 6, 6, 6, 6, 4, 3, 8, 8, 8
 |2, 2, 1, 9, 8, 8, 7, 6, 6, 7, 6, 6, 4, 4, 4, 7, 5, 3, 3, 2, 1, 7, 6, 5, 7, 7, 7, 3, 2, 1, 5, 5, 4, 7, 6, 4, 2, 1, 1, 3, 3, 3, 9, 9, 9, 9, 6, 3, 8, 7, 7, 7, 5, 5, 10, 9, 8, 1, 1, 1, 3, 3, 3, 4, 4, 2, 8, 8, 6, 6, 4, 4, 5, 2, 1, 8, 7, 7, 4, 3, 2, 8, 7, 7, 2, 2, 2, 7, 6, 3, 7, 6, 6, 8, 6, 5, 5, 4, 1, 1, 1, 1, 4, 3, 3, 6, 5, 5, 9, 7, 5, 6, 5, 5, 4, 3, 1, 8, 6, 5, 7, 6, 3, 10, 10, 10, 3, 2, 1, 10, 4, 3, 9, 8, 6, 5, 4, 3, 8, 6, 5, 10, 8, 8, 3, 1, 1, 7, 6, 3, 8, 8, 8, 6, 6, 6, 4, 3, 3, 7, 5, 5, 6, 6, 6, 10, 7, 3, 8, 7, 6, 6, 5, 4, 8, 8, 8, 8, 8, 8, 6, 5, 4, 1, 1, 1, 9, 9, 7, 6, 3, 2, 7, 5, 3, 8, 5, 3, 9, 8, 6, 4, 3, 2, 2, 2, 1, 6, 5, 3, 4, 3, 3, 10, 9, 8, 8, 7, 7, 4, 2, 1, 6, 5, 4, 6, 4, 2, 5, 4, 3, 9, 9, 8, 10, 6, 5, 10, 9, 8, 8, 4, 1, 10, 9, 7, 9, 9, 9, 3, 3, 3, 5, 4, 3, 9, 4, 2, 7, 6, 6, 10, 10, 10, 6, 5, 5, 7, 7, 7, 6, 2, 1, 9, 8, 6, 6, 6, 5, 8, 7, 5, 5, 5, 5, 10, 10, 10, 9, 7, 6, 1, 2, 1, 9, 6, 5, 4, 3, 2|];